Normalized Data/p04_11_normalized_split0.vrp
NAME:p04_11_NORMALIZED_split
BEST_KNOWN: 0
COMMENT: 0
DIMENSION: 588
CAPACITY: 100
EDGE_WEIGHT_FORMAT: FUNCTION
EDGE_WEIGHT_TYPE: EXACT_2D
NODE_COORD_SECTION
1 0.00000 0.00000
2 -22 -26
3 -22 -26
4 -22 -26
5 -42 45
6 -42 45
7 -42 45
8 -14 46
9 -14 46
10 -14 46
11 -14 46
12 -14 46
13 -32 -11
14 -32 -11
15 20 43
16 20 43
17 20 43
18 19 -37
19 8 -12
20 8 -12
21 8 -12
22 8 -12
23 8 -12
24 8 -12
25 -38 -49
26 -38 -49
27 -33 -17
28 -33 -17
29 -33 -17
30 -33 -17
31 48 -41
32 48 -41
33 48 -41
34 48 -41
35 48 -41
36 41 9
37 41 9
38 41 9
39 41 9
40 41 9
41 30 44
42 30 44
43 30 44
44 30 44
45 30 44
46 -50 -12
47 -50 -12
48 -50 -12
49 -50 -12
50 -50 -12
51 -48 34
52 -48 34
53 20 -4
54 20 -4
55 20 -4
56 20 -4
57 20 -4
58 20 -4
59 20 -4
60 26 -42
61 26 -42
62 26 -42
63 4 -17
64 4 -17
65 4 -17
66 4 -17
67 -10 16
68 -10 16
69 -10 16
70 -10 16
71 -10 16
72 -10 16
73 -31 7
74 -31 7
75 -31 7
76 -31 7
77 25 -12
78 25 -12
79 25 -12
80 25 -12
81 1 49
82 1 49
83 1 49
84 1 49
85 31 33
86 31 33
87 31 33
88 31 33
89 0 -39
90 0 -39
91 0 -39
92 0 -39
93 0 -39
94 46 -35
95 46 -35
96 46 -35
97 10 36
98 10 36
99 23 41
100 -44 -37
101 -44 -37
102 -44 -37
103 -44 -37
104 7 -41
105 7 -41
106 7 -41
107 7 -41
108 7 -41
109 18 27
110 18 27
111 12 -28
112 12 -28
113 14 34
114 14 34
115 48 19
116 48 19
117 -46 -30
118 -46 -30
119 -46 -30
120 -46 -30
121 -46 -30
122 -46 -30
123 32 -36
124 32 -36
125 32 -36
126 32 -36
127 32 -36
128 18 -41
129 18 -41
130 18 -41
131 45 -43
132 45 -43
133 45 -43
134 45 -43
135 45 -43
136 45 -43
137 49 -41
138 49 -41
139 49 -41
140 49 -41
141 49 -41
142 49 -41
143 49 -41
144 -21 14
145 -21 14
146 -21 14
147 -21 14
148 -21 14
149 9 -23
150 9 -23
151 9 -23
152 9 -23
153 -2 13
154 -2 13
155 -2 13
156 -2 13
157 -14 -3
158 -14 -3
159 -14 -3
160 -11 48
161 -11 48
162 48 32
163 48 32
164 48 32
165 -29 26
166 -29 26
167 -29 26
168 -29 26
169 45 33
170 45 33
171 45 33
172 45 33
173 45 33
174 45 33
175 -6 30
176 -6 30
177 -6 30
178 -6 30
179 -6 30
180 -6 30
181 -47 -39
182 -47 -39
183 -47 -39
184 -47 -39
185 3 -3
186 3 -3
187 3 -3
188 3 -3
189 3 -3
190 -39 -21
191 -39 -21
192 -39 -21
193 20 5
194 20 5
195 20 5
196 20 5
197 20 5
198 20 5
199 20 5
200 47 15
201 47 15
202 47 15
203 47 15
204 47 15
205 47 15
206 4 -22
207 4 -22
208 -43 23
209 -43 23
210 -43 23
211 -43 23
212 -43 23
213 7 37
214 7 37
215 7 37
216 7 37
217 7 37
218 17 17
219 17 17
220 34 45
221 34 45
222 34 45
223 21 9
224 21 9
225 21 9
226 21 9
227 21 9
228 21 9
229 21 9
230 -29 11
231 -29 11
232 -29 11
233 -20 -29
234 -20 -29
235 -20 -29
236 -20 -29
237 -20 -29
238 16 34
239 16 34
240 -25 -44
241 -25 -44
242 -25 -44
243 -25 -44
244 -40 3
245 -40 3
246 -40 3
247 -40 3
248 -40 3
249 2 40
250 2 40
251 2 40
252 2 40
253 -29 8
254 -29 8
255 -29 8
256 -29 8
257 23 -4
258 23 -4
259 23 -4
260 23 -4
261 -11 43
262 -11 43
263 -20 -45
264 -20 -45
265 -48 7
266 -48 7
267 -48 7
268 41 -33
269 41 -33
270 41 -33
271 29 -16
272 29 -16
273 46 -30
274 46 -30
275 46 -30
276 46 -30
277 46 -30
278 46 -30
279 26 27
280 26 27
281 -14 -34
282 -14 -34
283 -36 -50
284 -36 -50
285 -36 -50
286 -36 -50
287 3 6
288 3 6
289 42 46
290 42 46
291 42 46
292 -26 25
293 -26 25
294 -26 25
295 32 -25
296 32 -25
297 32 -25
298 32 -25
299 32 -25
300 32 -25
301 3 -21
302 3 -21
303 3 -21
304 3 -21
305 3 -21
306 3 -21
307 -14 19
308 -14 19
309 -14 19
310 36 5
311 36 5
312 36 5
313 36 5
314 -45 -19
315 -45 -19
316 -45 -19
317 -45 -19
318 42 4
319 42 4
320 -39 -20
321 -39 -20
322 -39 -20
323 -36 49
324 -36 49
325 -36 49
326 -36 49
327 -36 49
328 -36 49
329 -36 49
330 -50 49
331 -50 49
332 -50 49
333 -50 49
334 -50 49
335 -34 -39
336 -34 -39
337 -34 -39
338 -34 -39
339 20 -1
340 20 -1
341 20 -1
342 -18 -25
343 -18 -25
344 -18 -25
345 -18 -25
346 -18 -25
347 -18 -25
348 30 -16
349 30 -16
350 30 -16
351 30 -16
352 30 -16
353 30 -16
354 30 -16
355 -43 -5
356 -43 -5
357 3 50
358 3 50
359 -43 8
360 -43 8
361 -43 8
362 -43 8
363 -43 8
364 -22 -50
365 -22 -50
366 -22 -50
367 40 20
368 40 20
369 40 20
370 40 20
371 40 20
372 40 20
373 3 7
374 3 7
375 3 7
376 3 7
377 39 -39
378 39 -39
379 39 -39
380 39 -39
381 -23 48
382 31 42
383 31 42
384 31 42
385 31 42
386 8 23
387 8 23
388 8 23
389 8 23
390 8 23
391 8 23
392 4 0
393 4 0
394 4 0
395 4 0
396 -11 -9
397 -11 -9
398 -11 -9
399 -11 -9
400 -11 -9
401 4 9
402 4 9
403 4 9
404 34 45
405 34 45
406 25 -12
407 25 -12
408 25 -12
409 25 -12
410 25 -12
411 25 -12
412 8 28
413 8 28
414 8 28
415 8 28
416 8 28
417 8 28
418 8 28
419 16 20
420 16 20
421 16 20
422 40 15
423 40 15
424 40 15
425 40 15
426 36 22
427 36 22
428 36 22
429 36 22
430 35 3
431 -16 28
432 -16 28
433 -16 28
434 -16 28
435 -16 28
436 -41 50
437 -41 50
438 -41 50
439 -41 50
440 -25 -1
441 -25 -1
442 -25 -1
443 -29 8
444 -29 8
445 -29 8
446 17 8
447 17 8
448 17 8
449 17 8
450 17 8
451 17 8
452 26 -25
453 26 -25
454 26 -25
455 26 -25
456 26 -25
457 26 -25
458 26 -25
459 -45 3
460 -45 3
461 -45 3
462 -45 3
463 -45 3
464 -26 -21
465 -26 -21
466 -26 -21
467 20 16
468 20 16
469 20 16
470 20 16
471 20 16
472 20 16
473 -6 38
474 -6 38
475 -6 38
476 -6 38
477 20 -46
478 20 -46
479 20 -46
480 -25 5
481 -25 5
482 18 -8
483 18 -8
484 18 -8
485 -38 -26
486 -38 -26
487 -38 -26
488 41 3
489 41 3
490 50 -27
491 50 -27
492 50 -27
493 50 -27
494 -45 49
495 -45 49
496 -45 49
497 -47 19
498 -47 19
499 -47 19
500 -47 19
501 -47 19
502 -47 19
503 -19 41
504 -19 41
505 -19 41
506 34 -8
507 34 -8
508 34 -8
509 34 -8
510 34 -8
511 34 -8
512 -50 29
513 -50 29
514 -50 29
515 33 -10
516 33 -10
517 33 -10
518 45 -13
519 45 -13
520 45 -13
521 14 14
522 14 14
523 27 2
524 27 2
525 -25 9
526 -25 9
527 -25 9
528 -25 9
529 -25 9
530 -25 9
531 -25 9
532 -16 -16
533 -16 -16
534 -16 -16
535 -16 -16
536 -14 -3
537 -14 -3
538 -14 -3
539 -14 -3
540 -14 -3
541 -14 -3
542 22 -49
543 22 -49
544 22 -49
545 22 -49
546 4 5
547 4 5
548 4 5
549 4 5
550 4 5
551 4 5
552 -2 36
553 -2 36
554 -6 38
555 -6 38
556 -35 -34
557 -35 -34
558 -35 -34
559 -35 -34
560 -35 -34
561 18 36
562 18 36
563 18 36
564 18 36
565 18 36
566 18 36
567 18 36
568 -6 37
569 -6 37
570 -6 37
571 -6 37
572 -6 37
573 5 -47
574 5 -47
575 50 -28
576 50 -28
577 50 -28
578 -25 -7
579 -25 -7
580 -25 -7
581 -25 -7
582 2 32
583 2 32
584 2 32
585 -46 41
586 -46 41
587 -46 41
588 -46 41
DEMAND_SECTION
1 0
2 10
3 1
4 1
5 20
6 20
7 5
8 10
9 5
10 1
11 1
12 1
13 20
14 5
15 20
16 20
17 5
18 20
19 20
20 20
21 1
22 1
23 1
24 1
25 20
26 20
27 20
28 10
29 5
30 1
31 20
32 20
33 1
34 1
35 1
36 20
37 1
38 1
39 1
40 1
41 20
42 10
43 1
44 1
45 1
46 20
47 1
48 1
49 1
50 1
51 20
52 5
53 20
54 10
55 5
56 1
57 1
58 1
59 1
60 20
61 10
62 1
63 10
64 1
65 1
66 1
67 20
68 10
69 1
70 1
71 1
72 1
73 20
74 20
75 1
76 1
77 20
78 10
79 1
80 1
81 20
82 10
83 5
84 1
85 20
86 10
87 5
88 1
89 10
90 5
91 1
92 1
93 1
94 20
95 20
96 1
97 10
98 5
99 20
100 20
101 1
102 1
103 1
104 20
105 5
106 1
107 1
108 1
109 20
110 5
111 10
112 5
113 20
114 1
115 20
116 5
117 20
118 20
119 5
120 1
121 1
122 1
123 10
124 1
125 1
126 1
127 1
128 20
129 5
130 1
131 20
132 20
133 5
134 1
135 1
136 1
137 20
138 20
139 5
140 1
141 1
142 1
143 1
144 10
145 1
146 1
147 1
148 1
149 10
150 5
151 1
152 1
153 10
154 5
155 1
156 1
157 20
158 10
159 1
160 20
161 5
162 20
163 10
164 1
165 10
166 5
167 1
168 1
169 20
170 5
171 1
172 1
173 1
174 1
175 20
176 10
177 5
178 1
179 1
180 1
181 20
182 10
183 5
184 1
185 10
186 1
187 1
188 1
189 1
190 10
191 5
192 1
193 20
194 20
195 5
196 1
197 1
198 1
199 1
200 20
201 5
202 1
203 1
204 1
205 1
206 10
207 5
208 20
209 20
210 1
211 1
212 1
213 20
214 20
215 1
216 1
217 1
218 10
219 5
220 20
221 20
222 5
223 20
224 10
225 5
226 1
227 1
228 1
229 1
230 20
231 10
232 5
233 20
234 20
235 1
236 1
237 1
238 20
239 20
240 20
241 5
242 1
243 1
244 20
245 5
246 1
247 1
248 1
249 10
250 5
251 1
252 1
253 10
254 5
255 1
256 1
257 10
258 1
259 1
260 1
261 20
262 5
263 10
264 5
265 20
266 20
267 10
268 20
269 1
270 1
271 20
272 1
273 20
274 20
275 1
276 1
277 1
278 1
279 20
280 5
281 10
282 5
283 10
284 1
285 1
286 1
287 10
288 5
289 20
290 20
291 5
292 10
293 1
294 1
295 20
296 20
297 1
298 1
299 1
300 1
301 20
302 20
303 5
304 1
305 1
306 1
307 20
308 10
309 1
310 10
311 5
312 1
313 1
314 20
315 20
316 1
317 1
318 20
319 10
320 20
321 5
322 1
323 20
324 10
325 5
326 1
327 1
328 1
329 1
330 20
331 1
332 1
333 1
334 1
335 20
336 5
337 1
338 1
339 20
340 1
341 1
342 20
343 20
344 1
345 1
346 1
347 1
348 20
349 20
350 5
351 1
352 1
353 1
354 1
355 20
356 20
357 20
358 20
359 20
360 10
361 5
362 1
363 1
364 20
365 20
366 1
367 20
368 10
369 1
370 1
371 1
372 1
373 10
374 1
375 1
376 1
377 20
378 5
379 1
380 1
381 20
382 10
383 5
384 1
385 1
386 20
387 10
388 5
389 1
390 1
391 1
392 10
393 1
394 1
395 1
396 10
397 5
398 1
399 1
400 1
401 20
402 20
403 1
404 20
405 1
406 20
407 20
408 5
409 1
410 1
411 1
412 20
413 20
414 5
415 1
416 1
417 1
418 1
419 10
420 5
421 1
422 10
423 5
424 1
425 1
426 20
427 5
428 1
429 1
430 20
431 20
432 10
433 1
434 1
435 1
436 20
437 20
438 1
439 1
440 20
441 20
442 5
443 20
444 10
445 5
446 20
447 10
448 5
449 1
450 1
451 1
452 20
453 20
454 5
455 1
456 1
457 1
458 1
459 20
460 10
461 1
462 1
463 1
464 20
465 5
466 1
467 20
468 5
469 1
470 1
471 1
472 1
473 20
474 1
475 1
476 1
477 20
478 20
479 10
480 10
481 5
482 20
483 20
484 10
485 20
486 20
487 10
488 20
489 1
490 20
491 20
492 1
493 1
494 20
495 20
496 1
497 20
498 20
499 5
500 1
501 1
502 1
503 20
504 5
505 1
506 20
507 10
508 1
509 1
510 1
511 1
512 20
513 20
514 5
515 20
516 10
517 5
518 20
519 5
520 1
521 20
522 20
523 20
524 5
525 20
526 20
527 5
528 1
529 1
530 1
531 1
532 20
533 20
534 1
535 1
536 20
537 10
538 5
539 1
540 1
541 1
542 20
543 10
544 5
545 1
546 20
547 20
548 5
549 1
550 1
551 1
552 20
553 5
554 20
555 20
556 20
557 20
558 1
559 1
560 1
561 20
562 20
563 5
564 1
565 1
566 1
567 1
568 10
569 5
570 1
571 1
572 1
573 20
574 10
575 10
576 5
577 1
578 10
579 1
580 1
581 1
582 20
583 10
584 1
585 10
586 1
587 1
588 1
DEPOT_SECTION
1
-1
EOF