Normalized Data/p04_11_normalized_split0.sol
587 -1 2 3 555 558 557 559 181 180 182 183 102 100 101 99 399 396 -5 6 4 435 438 322 327 323 434 433 -15 14 16 560 561 565 566 563 564 562 287 -18 17 477 127 128 110 111 -21 20 22 23 19 64 62 205 206 305 304 300 301 303 302 -27 320 319 321 189 191 190 315 316 314 313 580 579 578 158 539 540 -33 34 30 31 32 138 137 141 142 136 139 140 297 298 299 296 -37 39 38 36 35 199 201 203 202 204 200 115 114 423 422 421 424 -52 56 54 58 53 55 57 340 338 339 193 195 196 197 194 -60 59 61 542 544 543 541 478 476 129 -63 65 148 150 149 151 104 105 103 106 107 573 572 88 92 89 90 91 -67 307 306 308 144 147 143 146 528 526 524 525 -71 70 68 66 69 430 431 432 174 175 178 179 177 152 154 -85 289 290 288 220 221 404 382 384 381 383 -97 96 112 113 237 238 108 -98 43 44 40 42 41 219 403 109 -121 116 119 118 120 117 486 484 485 -123 126 125 122 124 94 95 93 274 272 277 275 273 276 -145 211 210 209 512 513 511 50 51 587 586 585 584 291 292 293 -155 153 80 83 82 81 356 357 249 248 251 250 -165 333 332 330 329 331 493 494 495 436 437 328 325 326 324 -166 167 164 207 208 500 498 496 497 499 501 -168 169 173 172 170 171 162 161 163 370 366 368 369 371 367 -176 568 473 160 159 8 7 11 9 10 380 502 504 503 -186 185 188 378 377 379 376 131 132 134 130 133 135 267 268 269 -187 184 457 455 456 454 453 452 451 294 295 -198 192 222 226 228 223 224 225 227 448 447 450 445 446 449 -229 231 230 252 444 443 253 442 480 479 -236 232 233 234 235 345 343 346 344 342 341 397 398 395 -239 241 242 240 364 365 363 263 262 280 281 -245 461 458 459 460 462 266 264 265 362 359 361 74 75 255 254 -258 259 256 257 514 515 516 505 508 507 522 523 392 -261 260 474 553 472 554 475 567 571 569 570 -270 271 350 351 349 352 347 353 348 481 483 -284 283 285 282 25 24 334 337 335 336 556 -286 401 402 400 546 547 550 545 548 -312 309 310 311 318 317 487 488 429 393 394 391 -354 355 48 45 46 49 47 13 12 577 -375 373 372 374 388 386 390 387 389 385 415 414 411 412 413 416 417 -409 79 78 408 405 77 410 407 406 76 482 -428 427 425 426 84 86 87 278 279 420 419 418 549 -439 440 157 156 536 535 -441 244 243 246 247 358 360 72 73 527 530 529 -468 466 469 471 467 470 218 217 521 520 -510 506 509 518 517 519 489 492 491 490 576 575 574 -533 534 531 532 464 465 463 26 28 29 537 538 -551 552 216 212 215 214 213 583 582 581 0 





OBJ=
4384.152
BEST_KNOWN=
0.000